%%%mzn-stat: initTime=0.002141864
%%%mzn-stat: objective=376
%%%mzn-stat: nodes=470
%%%mzn-stat: restarts=0
%%%mzn-stat: peakDepth=66
%%%mzn-stat: solveTime=0.015071893
%%%mzn-stat: variables=202
%%%mzn-stat: propagators=124
%%%mzn-stat: failures=384
%%%mzn-stat: propagations=26047
%%%mzn-stat: nogoods=384
%%%mzn-stat: AverageConflictSize=2.1536458333333335
%%%mzn-stat: NumUnitNogoodsLearned=375
%%%mzn-stat: AverageLearnedNogoodLength=1.1822916666666667
%%%mzn-stat: AverageBacktrackAmount=0
%%%mzn-stat: AverageLbd=1.0703125
%%%mzn-stat-end
maxleg = 376;
succ = array1d(1..20,[11, 5, 14, 13, 18, 12, 15, 19, 10, 16, 8, 1, 20, 2, 3, 7, 9, 6, 4, 17]);
% time elapsed: 1.60 s
----------
==========
% time elapsed: 1.60 s
%%%mzn-stat: initTime=0.002141864
%%%mzn-stat: objective=376
%%%mzn-stat: nodes=470
%%%mzn-stat: restarts=0
%%%mzn-stat: peakDepth=66
%%%mzn-stat: solveTime=0.015074796
%%%mzn-stat: variables=202
%%%mzn-stat: propagators=124
%%%mzn-stat: failures=384
%%%mzn-stat: propagations=26047
%%%mzn-stat: nogoods=384
%%%mzn-stat: AverageConflictSize=2.1536458333333335
%%%mzn-stat: NumUnitNogoodsLearned=375
%%%mzn-stat: AverageLearnedNogoodLength=1.1822916666666667
%%%mzn-stat: AverageBacktrackAmount=0
%%%mzn-stat: AverageLbd=1.0703125
%%%mzn-stat-end
